NAME : portcgen-25-70
COMMENT : portcgen N=25, seed=70
TYPE : TSP
DIMENSION : 25
EDGE_WEIGHT_TYPE : EUC_2D
NODE_COORD_SECTION
1 78 99
2 96 90
3 85 74
4 64 62
5 61 79
6 74 79
7 87 82
8 69 73
9 76 115
10 56 72
11 61 79
12 71 87
13 69 81
14 77 79
15 83 101
16 66 88
17 56 90
18 84 61
19 67 89
20 87 77
21 63 63
22 61 65
23 71 65
24 62 64
25 80 63
